c random formula
p cnf 10 35
7 -8 6 0
-6 -9 -5 0
-3 -9 10 0
8 7 4 0
10 -7 6 0
8 -7 -10 0
5 1 8 0
3 9 -8 0
2 -5 4 0
9 2 8 0
6 -5 3 0
3 -1 -6 0
6 -5 -2 0
-2 6 -7 0
2 -6 -10 0
-8 2 -1 0
-3 -6 1 0
5 4 6 0
-3 9 -7 0
5 10 1 0
-6 -1 -8 0
-8 -2 4 0
-7 -8 -1 0
-8 4 5 0
2 6 -5 0
-5 9 3 0
7 -5 9 0
-1 4 -7 0
-9 1 10 0
6 7 3 0
8 9 -3 0
-10 4 7 0
-8 5 1 0
-3 9 2 0
5 9 -4 0
